(declare-fun c_0 () Int)
(assert (and (< c_0 0) (>= c_0 0)))
(declare-fun c_1 () Int)
(assert (and (< c_1 8) (>= c_1 0)))
(declare-fun c_2 () Int)
(assert (and (< c_2 0) (>= c_2 0)))
(declare-fun c_3 () Int)
(assert (and (< c_3 0) (>= c_3 0)))
(assert (not (or (= c_0 c_2) (= c_2 c_0))))
(declare-fun w_0 () Int)
(declare-fun w_1 () Int)
(assert (and (and (< w_0 0) (>= w_0 0)) (and (< w_1 8) (>= w_1 0))))
(declare-fun w_2 () Int)
(declare-fun w_3 () Int)
(assert (and (and (< w_2 0) (>= w_2 0)) (and (< w_3 8) (>= w_3 0))))
(declare-fun w_4 () Int)
(declare-fun w_5 () Int)
(assert (and (and (< w_4 0) (>= w_4 0)) (and (< w_5 8) (>= w_5 0))))
(assert (or (= w_5 w_3) (= w_5 w_1)))
(check-sat)
(get-model)
